unsat
(:max-memory          18.42
 :memory              18.32
 :nlsat-arith-var     4
 :nlsat-atoms         10
 :nlsat-bool-var      2
 :nlsat-clauses       9
 :nlsat-conflicts     3
 :nlsat-propagations  9
 :nlsat-stages        4
 :num-allocs          50534
 :rlimit-count        1609
 :solve-eqs-elim-vars 1
 :solve-eqs-steps     2
 :time                0.00
 :total-time          0.02)
